//
// Data from
// http://www.comp.rgu.ac.uk/staff/ha/ZCSP/additional_problems/stable_marriage/stable_marriage.pdf
// page 4
//
n = 6;
rankWomen = 
[
 [1,5,4,6,2,3],
 [4,1,5,2,6,3],
 [6,4,2,1,5,3],
 [1,5,2,4,3,6],
 [4,2,1,5,6,3],
 [2,6,3,5,1,4]
];

rankMen =
[
 [1,4,2,5,6,3],
 [3,4,6,1,5,2],
 [1,6,4,2,3,5],
 [6,5,3,4,2,1],
 [3,1,2,4,5,6],
 [2,3,1,6,5,4]
];
